data;
param n:=50;
param w:=1 107 2 186 3 180 4 181 5 -156 6 110 7 3 8 -194 9 -100 10 -116 11 -178 12 206 13 -224 14 -268 15 101 16 -108 17 -155 18 126 19 199 20 186 21 -20 22 183 23 43 24 23 25 95 26 -233 27 -41 28 -268 29 163 30 -104 31 68 32 -98 33 52 34 -99 35 60 36 129 37 149 38 -20 39 -91 40 180 41 101 42 40 43 184 44 152 45 -137 46 -48 47 -181 48 -211 49 -142 50 -15;
